c File: flat150_3_0.col
c
c SOURCE: Joseph Culberson (joe@cs.ualberta.ca)
c DESCRIPTION: Quasi-random coloring problem
c              generated with flatness = 0
c                             probability = 0.048
c                             known coloring = 3
c                             random seed = 1034
c              Creation Date:  Wed Feb 24 10:37:25 1999
c Maximum degree = 8 Minimum degree = 1
c COLOR VERIFICATION: Using the permuted order
c under simple greedy yields the specified
c coloring number
c Color = 3 specified partitions = 3
c p edge 150 360
c cnf created by edge2cnf
p cnf 450 1680
-1 -2 0
-1 -3 0
-2 -3 0
1 2 3 0
-4 -5 0
-4 -6 0
-5 -6 0
4 5 6 0
-7 -8 0
-7 -9 0
-8 -9 0
7 8 9 0
-10 -11 0
-10 -12 0
-11 -12 0
10 11 12 0
-13 -14 0
-13 -15 0
-14 -15 0
13 14 15 0
-16 -17 0
-16 -18 0
-17 -18 0
16 17 18 0
-19 -20 0
-19 -21 0
-20 -21 0
19 20 21 0
-22 -23 0
-22 -24 0
-23 -24 0
22 23 24 0
-25 -26 0
-25 -27 0
-26 -27 0
25 26 27 0
-28 -29 0
-28 -30 0
-29 -30 0
28 29 30 0
-31 -32 0
-31 -33 0
-32 -33 0
31 32 33 0
-34 -35 0
-34 -36 0
-35 -36 0
34 35 36 0
-37 -38 0
-37 -39 0
-38 -39 0
37 38 39 0
-40 -41 0
-40 -42 0
-41 -42 0
40 41 42 0
-43 -44 0
-43 -45 0
-44 -45 0
43 44 45 0
-46 -47 0
-46 -48 0
-47 -48 0
46 47 48 0
-49 -50 0
-49 -51 0
-50 -51 0
49 50 51 0
-52 -53 0
-52 -54 0
-53 -54 0
52 53 54 0
-55 -56 0
-55 -57 0
-56 -57 0
55 56 57 0
-58 -59 0
-58 -60 0
-59 -60 0
58 59 60 0
-61 -62 0
-61 -63 0
-62 -63 0
61 62 63 0
-64 -65 0
-64 -66 0
-65 -66 0
64 65 66 0
-67 -68 0
-67 -69 0
-68 -69 0
67 68 69 0
-70 -71 0
-70 -72 0
-71 -72 0
70 71 72 0
-73 -74 0
-73 -75 0
-74 -75 0
73 74 75 0
-76 -77 0
-76 -78 0
-77 -78 0
76 77 78 0
-79 -80 0
-79 -81 0
-80 -81 0
79 80 81 0
-82 -83 0
-82 -84 0
-83 -84 0
82 83 84 0
-85 -86 0
-85 -87 0
-86 -87 0
85 86 87 0
-88 -89 0
-88 -90 0
-89 -90 0
88 89 90 0
-91 -92 0
-91 -93 0
-92 -93 0
91 92 93 0
-94 -95 0
-94 -96 0
-95 -96 0
94 95 96 0
-97 -98 0
-97 -99 0
-98 -99 0
97 98 99 0
-100 -101 0
-100 -102 0
-101 -102 0
100 101 102 0
-103 -104 0
-103 -105 0
-104 -105 0
103 104 105 0
-106 -107 0
-106 -108 0
-107 -108 0
106 107 108 0
-109 -110 0
-109 -111 0
-110 -111 0
109 110 111 0
-112 -113 0
-112 -114 0
-113 -114 0
112 113 114 0
-115 -116 0
-115 -117 0
-116 -117 0
115 116 117 0
-118 -119 0
-118 -120 0
-119 -120 0
118 119 120 0
-121 -122 0
-121 -123 0
-122 -123 0
121 122 123 0
-124 -125 0
-124 -126 0
-125 -126 0
124 125 126 0
-127 -128 0
-127 -129 0
-128 -129 0
127 128 129 0
-130 -131 0
-130 -132 0
-131 -132 0
130 131 132 0
-133 -134 0
-133 -135 0
-134 -135 0
133 134 135 0
-136 -137 0
-136 -138 0
-137 -138 0
136 137 138 0
-139 -140 0
-139 -141 0
-140 -141 0
139 140 141 0
-142 -143 0
-142 -144 0
-143 -144 0
142 143 144 0
-145 -146 0
-145 -147 0
-146 -147 0
145 146 147 0
-148 -149 0
-148 -150 0
-149 -150 0
148 149 150 0
-151 -152 0
-151 -153 0
-152 -153 0
151 152 153 0
-154 -155 0
-154 -156 0
-155 -156 0
154 155 156 0
-157 -158 0
-157 -159 0
-158 -159 0
157 158 159 0
-160 -161 0
-160 -162 0
-161 -162 0
160 161 162 0
-163 -164 0
-163 -165 0
-164 -165 0
163 164 165 0
-166 -167 0
-166 -168 0
-167 -168 0
166 167 168 0
-169 -170 0
-169 -171 0
-170 -171 0
169 170 171 0
-172 -173 0
-172 -174 0
-173 -174 0
172 173 174 0
-175 -176 0
-175 -177 0
-176 -177 0
175 176 177 0
-178 -179 0
-178 -180 0
-179 -180 0
178 179 180 0
-181 -182 0
-181 -183 0
-182 -183 0
181 182 183 0
-184 -185 0
-184 -186 0
-185 -186 0
184 185 186 0
-187 -188 0
-187 -189 0
-188 -189 0
187 188 189 0
-190 -191 0
-190 -192 0
-191 -192 0
190 191 192 0
-193 -194 0
-193 -195 0
-194 -195 0
193 194 195 0
-196 -197 0
-196 -198 0
-197 -198 0
196 197 198 0
-199 -200 0
-199 -201 0
-200 -201 0
199 200 201 0
-202 -203 0
-202 -204 0
-203 -204 0
202 203 204 0
-205 -206 0
-205 -207 0
-206 -207 0
205 206 207 0
-208 -209 0
-208 -210 0
-209 -210 0
208 209 210 0
-211 -212 0
-211 -213 0
-212 -213 0
211 212 213 0
-214 -215 0
-214 -216 0
-215 -216 0
214 215 216 0
-217 -218 0
-217 -219 0
-218 -219 0
217 218 219 0
-220 -221 0
-220 -222 0
-221 -222 0
220 221 222 0
-223 -224 0
-223 -225 0
-224 -225 0
223 224 225 0
-226 -227 0
-226 -228 0
-227 -228 0
226 227 228 0
-229 -230 0
-229 -231 0
-230 -231 0
229 230 231 0
-232 -233 0
-232 -234 0
-233 -234 0
232 233 234 0
-235 -236 0
-235 -237 0
-236 -237 0
235 236 237 0
-238 -239 0
-238 -240 0
-239 -240 0
238 239 240 0
-241 -242 0
-241 -243 0
-242 -243 0
241 242 243 0
-244 -245 0
-244 -246 0
-245 -246 0
244 245 246 0
-247 -248 0
-247 -249 0
-248 -249 0
247 248 249 0
-250 -251 0
-250 -252 0
-251 -252 0
250 251 252 0
-253 -254 0
-253 -255 0
-254 -255 0
253 254 255 0
-256 -257 0
-256 -258 0
-257 -258 0
256 257 258 0
-259 -260 0
-259 -261 0
-260 -261 0
259 260 261 0
-262 -263 0
-262 -264 0
-263 -264 0
262 263 264 0
-265 -266 0
-265 -267 0
-266 -267 0
265 266 267 0
-268 -269 0
-268 -270 0
-269 -270 0
268 269 270 0
-271 -272 0
-271 -273 0
-272 -273 0
271 272 273 0
-274 -275 0
-274 -276 0
-275 -276 0
274 275 276 0
-277 -278 0
-277 -279 0
-278 -279 0
277 278 279 0
-280 -281 0
-280 -282 0
-281 -282 0
280 281 282 0
-283 -284 0
-283 -285 0
-284 -285 0
283 284 285 0
-286 -287 0
-286 -288 0
-287 -288 0
286 287 288 0
-289 -290 0
-289 -291 0
-290 -291 0
289 290 291 0
-292 -293 0
-292 -294 0
-293 -294 0
292 293 294 0
-295 -296 0
-295 -297 0
-296 -297 0
295 296 297 0
-298 -299 0
-298 -300 0
-299 -300 0
298 299 300 0
-301 -302 0
-301 -303 0
-302 -303 0
301 302 303 0
-304 -305 0
-304 -306 0
-305 -306 0
304 305 306 0
-307 -308 0
-307 -309 0
-308 -309 0
307 308 309 0
-310 -311 0
-310 -312 0
-311 -312 0
310 311 312 0
-313 -314 0
-313 -315 0
-314 -315 0
313 314 315 0
-316 -317 0
-316 -318 0
-317 -318 0
316 317 318 0
-319 -320 0
-319 -321 0
-320 -321 0
319 320 321 0
-322 -323 0
-322 -324 0
-323 -324 0
322 323 324 0
-325 -326 0
-325 -327 0
-326 -327 0
325 326 327 0
-328 -329 0
-328 -330 0
-329 -330 0
328 329 330 0
-331 -332 0
-331 -333 0
-332 -333 0
331 332 333 0
-334 -335 0
-334 -336 0
-335 -336 0
334 335 336 0
-337 -338 0
-337 -339 0
-338 -339 0
337 338 339 0
-340 -341 0
-340 -342 0
-341 -342 0
340 341 342 0
-343 -344 0
-343 -345 0
-344 -345 0
343 344 345 0
-346 -347 0
-346 -348 0
-347 -348 0
346 347 348 0
-349 -350 0
-349 -351 0
-350 -351 0
349 350 351 0
-352 -353 0
-352 -354 0
-353 -354 0
352 353 354 0
-355 -356 0
-355 -357 0
-356 -357 0
355 356 357 0
-358 -359 0
-358 -360 0
-359 -360 0
358 359 360 0
-361 -362 0
-361 -363 0
-362 -363 0
361 362 363 0
-364 -365 0
-364 -366 0
-365 -366 0
364 365 366 0
-367 -368 0
-367 -369 0
-368 -369 0
367 368 369 0
-370 -371 0
-370 -372 0
-371 -372 0
370 371 372 0
-373 -374 0
-373 -375 0
-374 -375 0
373 374 375 0
-376 -377 0
-376 -378 0
-377 -378 0
376 377 378 0
-379 -380 0
-379 -381 0
-380 -381 0
379 380 381 0
-382 -383 0
-382 -384 0
-383 -384 0
382 383 384 0
-385 -386 0
-385 -387 0
-386 -387 0
385 386 387 0
-388 -389 0
-388 -390 0
-389 -390 0
388 389 390 0
-391 -392 0
-391 -393 0
-392 -393 0
391 392 393 0
-394 -395 0
-394 -396 0
-395 -396 0
394 395 396 0
-397 -398 0
-397 -399 0
-398 -399 0
397 398 399 0
-400 -401 0
-400 -402 0
-401 -402 0
400 401 402 0
-403 -404 0
-403 -405 0
-404 -405 0
403 404 405 0
-406 -407 0
-406 -408 0
-407 -408 0
406 407 408 0
-409 -410 0
-409 -411 0
-410 -411 0
409 410 411 0
-412 -413 0
-412 -414 0
-413 -414 0
412 413 414 0
-415 -416 0
-415 -417 0
-416 -417 0
415 416 417 0
-418 -419 0
-418 -420 0
-419 -420 0
418 419 420 0
-421 -422 0
-421 -423 0
-422 -423 0
421 422 423 0
-424 -425 0
-424 -426 0
-425 -426 0
424 425 426 0
-427 -428 0
-427 -429 0
-428 -429 0
427 428 429 0
-430 -431 0
-430 -432 0
-431 -432 0
430 431 432 0
-433 -434 0
-433 -435 0
-434 -435 0
433 434 435 0
-436 -437 0
-436 -438 0
-437 -438 0
436 437 438 0
-439 -440 0
-439 -441 0
-440 -441 0
439 440 441 0
-442 -443 0
-442 -444 0
-443 -444 0
442 443 444 0
-445 -446 0
-445 -447 0
-446 -447 0
445 446 447 0
-448 -449 0
-448 -450 0
-449 -450 0
448 449 450 0
-427 -1 0
-428 -2 0
-429 -3 0
-442 -1 0
-443 -2 0
-444 -3 0
-16 -4 0
-17 -5 0
-18 -6 0
-25 -4 0
-26 -5 0
-27 -6 0
-79 -4 0
-80 -5 0
-81 -6 0
-160 -4 0
-161 -5 0
-162 -6 0
-217 -4 0
-218 -5 0
-219 -6 0
-235 -4 0
-236 -5 0
-237 -6 0
-358 -4 0
-359 -5 0
-360 -6 0
-445 -4 0
-446 -5 0
-447 -6 0
-49 -7 0
-50 -8 0
-51 -9 0
-70 -7 0
-71 -8 0
-72 -9 0
-259 -7 0
-260 -8 0
-261 -9 0
-301 -7 0
-302 -8 0
-303 -9 0
-325 -7 0
-326 -8 0
-327 -9 0
-343 -7 0
-344 -8 0
-345 -9 0
-367 -7 0
-368 -8 0
-369 -9 0
-82 -10 0
-83 -11 0
-84 -12 0
-193 -10 0
-194 -11 0
-195 -12 0
-301 -10 0
-302 -11 0
-303 -12 0
-439 -10 0
-440 -11 0
-441 -12 0
-97 -13 0
-98 -14 0
-99 -15 0
-241 -13 0
-242 -14 0
-243 -15 0
-316 -13 0
-317 -14 0
-318 -15 0
-325 -13 0
-326 -14 0
-327 -15 0
-79 -16 0
-80 -17 0
-81 -18 0
-118 -16 0
-119 -17 0
-120 -18 0
-304 -16 0
-305 -17 0
-306 -18 0
-346 -16 0
-347 -17 0
-348 -18 0
-421 -16 0
-422 -17 0
-423 -18 0
-64 -19 0
-65 -20 0
-66 -21 0
-178 -19 0
-179 -20 0
-180 -21 0
-304 -19 0
-305 -20 0
-306 -21 0
-370 -22 0
-371 -23 0
-372 -24 0
-439 -22 0
-440 -23 0
-441 -24 0
-31 -25 0
-32 -26 0
-33 -27 0
-43 -25 0
-44 -26 0
-45 -27 0
-127 -25 0
-128 -26 0
-129 -27 0
-232 -25 0
-233 -26 0
-234 -27 0
-253 -25 0
-254 -26 0
-255 -27 0
-88 -28 0
-89 -29 0
-90 -30 0
-286 -28 0
-287 -29 0
-288 -30 0
-343 -28 0
-344 -29 0
-345 -30 0
-412 -28 0
-413 -29 0
-414 -30 0
-250 -31 0
-251 -32 0
-252 -33 0
-322 -31 0
-323 -32 0
-324 -33 0
-403 -31 0
-404 -32 0
-405 -33 0
-106 -34 0
-107 -35 0
-108 -36 0
-130 -34 0
-131 -35 0
-132 -36 0
-139 -34 0
-140 -35 0
-141 -36 0
-187 -34 0
-188 -35 0
-189 -36 0
-322 -34 0
-323 -35 0
-324 -36 0
-343 -34 0
-344 -35 0
-345 -36 0
-427 -34 0
-428 -35 0
-429 -36 0
-103 -37 0
-104 -38 0
-105 -39 0
-133 -37 0
-134 -38 0
-135 -39 0
-133 -40 0
-134 -41 0
-135 -42 0
-295 -40 0
-296 -41 0
-297 -42 0
-304 -40 0
-305 -41 0
-306 -42 0
-376 -40 0
-377 -41 0
-378 -42 0
-391 -40 0
-392 -41 0
-393 -42 0
-442 -40 0
-443 -41 0
-444 -42 0
-382 -43 0
-383 -44 0
-384 -45 0
-97 -46 0
-98 -47 0
-99 -48 0
-172 -46 0
-173 -47 0
-174 -48 0
-229 -46 0
-230 -47 0
-231 -48 0
-238 -46 0
-239 -47 0
-240 -48 0
-310 -46 0
-311 -47 0
-312 -48 0
-361 -46 0
-362 -47 0
-363 -48 0
-115 -49 0
-116 -50 0
-117 -51 0
-121 -49 0
-122 -50 0
-123 -51 0
-178 -49 0
-179 -50 0
-180 -51 0
-193 -49 0
-194 -50 0
-195 -51 0
-316 -49 0
-317 -50 0
-318 -51 0
-373 -49 0
-374 -50 0
-375 -51 0
-430 -49 0
-431 -50 0
-432 -51 0
-283 -52 0
-284 -53 0
-285 -54 0
-379 -52 0
-380 -53 0
-381 -54 0
-433 -52 0
-434 -53 0
-435 -54 0
-88 -55 0
-89 -56 0
-90 -57 0
-112 -55 0
-113 -56 0
-114 -57 0
-169 -55 0
-170 -56 0
-171 -57 0
-277 -55 0
-278 -56 0
-279 -57 0
-352 -55 0
-353 -56 0
-354 -57 0
-106 -58 0
-107 -59 0
-108 -60 0
-289 -58 0
-290 -59 0
-291 -60 0
-391 -58 0
-392 -59 0
-393 -60 0
-418 -58 0
-419 -59 0
-420 -60 0
-79 -61 0
-80 -62 0
-81 -63 0
-121 -61 0
-122 -62 0
-123 -63 0
-172 -61 0
-173 -62 0
-174 -63 0
-214 -61 0
-215 -62 0
-216 -63 0
-220 -61 0
-221 -62 0
-222 -63 0
-310 -61 0
-311 -62 0
-312 -63 0
-322 -61 0
-323 -62 0
-324 -63 0
-391 -61 0
-392 -62 0
-393 -63 0
-178 -64 0
-179 -65 0
-180 -66 0
-190 -64 0
-191 -65 0
-192 -66 0
-355 -64 0
-356 -65 0
-357 -66 0
-403 -64 0
-404 -65 0
-405 -66 0
-436 -64 0
-437 -65 0
-438 -66 0
-352 -67 0
-353 -68 0
-354 -69 0
-367 -67 0
-368 -68 0
-369 -69 0
-439 -67 0
-440 -68 0
-441 -69 0
-73 -70 0
-74 -71 0
-75 -72 0
-94 -70 0
-95 -71 0
-96 -72 0
-160 -70 0
-161 -71 0
-162 -72 0
-232 -70 0
-233 -71 0
-234 -72 0
-334 -70 0
-335 -71 0
-336 -72 0
-139 -73 0
-140 -74 0
-141 -75 0
-148 -73 0
-149 -74 0
-150 -75 0
-262 -73 0
-263 -74 0
-264 -75 0
-310 -73 0
-311 -74 0
-312 -75 0
-346 -73 0
-347 -74 0
-348 -75 0
-373 -73 0
-374 -74 0
-375 -75 0
-88 -76 0
-89 -77 0
-90 -78 0
-154 -76 0
-155 -77 0
-156 -78 0
-340 -76 0
-341 -77 0
-342 -78 0
-190 -79 0
-191 -80 0
-192 -81 0
-250 -79 0
-251 -80 0
-252 -81 0
-331 -79 0
-332 -80 0
-333 -81 0
-412 -79 0
-413 -80 0
-414 -81 0
-421 -79 0
-422 -80 0
-423 -81 0
-130 -82 0
-131 -83 0
-132 -84 0
-178 -82 0
-179 -83 0
-180 -84 0
-199 -82 0
-200 -83 0
-201 -84 0
-304 -82 0
-305 -83 0
-306 -84 0
-124 -85 0
-125 -86 0
-126 -87 0
-331 -88 0
-332 -89 0
-333 -90 0
-370 -88 0
-371 -89 0
-372 -90 0
-403 -88 0
-404 -89 0
-405 -90 0
-427 -88 0
-428 -89 0
-429 -90 0
-187 -91 0
-188 -92 0
-189 -93 0
-244 -91 0
-245 -92 0
-246 -93 0
-121 -94 0
-122 -95 0
-123 -96 0
-130 -94 0
-131 -95 0
-132 -96 0
-133 -94 0
-134 -95 0
-135 -96 0
-160 -94 0
-161 -95 0
-162 -96 0
-376 -94 0
-377 -95 0
-378 -96 0
-433 -94 0
-434 -95 0
-435 -96 0
-145 -97 0
-146 -98 0
-147 -99 0
-250 -97 0
-251 -98 0
-252 -99 0
-286 -97 0
-287 -98 0
-288 -99 0
-388 -97 0
-389 -98 0
-390 -99 0
-409 -97 0
-410 -98 0
-411 -99 0
-169 -100 0
-170 -101 0
-171 -102 0
-196 -100 0
-197 -101 0
-198 -102 0
-220 -100 0
-221 -101 0
-222 -102 0
-244 -100 0
-245 -101 0
-246 -102 0
-421 -100 0
-422 -101 0
-423 -102 0
-130 -103 0
-131 -104 0
-132 -105 0
-193 -103 0
-194 -104 0
-195 -105 0
-112 -106 0
-113 -107 0
-114 -108 0
-151 -106 0
-152 -107 0
-153 -108 0
-283 -106 0
-284 -107 0
-285 -108 0
-442 -106 0
-443 -107 0
-444 -108 0
-208 -109 0
-209 -110 0
-210 -111 0
-319 -109 0
-320 -110 0
-321 -111 0
-187 -112 0
-188 -113 0
-189 -114 0
-394 -112 0
-395 -113 0
-396 -114 0
-256 -115 0
-257 -116 0
-258 -117 0
-265 -115 0
-266 -116 0
-267 -117 0
-283 -115 0
-284 -116 0
-285 -117 0
-349 -115 0
-350 -116 0
-351 -117 0
-145 -118 0
-146 -119 0
-147 -120 0
-157 -118 0
-158 -119 0
-159 -120 0
-214 -118 0
-215 -119 0
-216 -120 0
-307 -118 0
-308 -119 0
-309 -120 0
-340 -118 0
-341 -119 0
-342 -120 0
-265 -121 0
-266 -122 0
-267 -123 0
-355 -121 0
-356 -122 0
-357 -123 0
-400 -121 0
-401 -122 0
-402 -123 0
-415 -121 0
-416 -122 0
-417 -123 0
-181 -124 0
-182 -125 0
-183 -126 0
-223 -124 0
-224 -125 0
-225 -126 0
-301 -124 0
-302 -125 0
-303 -126 0
-391 -124 0
-392 -125 0
-393 -126 0
-190 -127 0
-191 -128 0
-192 -129 0
-244 -127 0
-245 -128 0
-246 -129 0
-277 -130 0
-278 -131 0
-279 -132 0
-280 -130 0
-281 -131 0
-282 -132 0
-418 -130 0
-419 -131 0
-420 -132 0
-256 -133 0
-257 -134 0
-258 -135 0
-358 -133 0
-359 -134 0
-360 -135 0
-367 -133 0
-368 -134 0
-369 -135 0
-157 -136 0
-158 -137 0
-159 -138 0
-241 -136 0
-242 -137 0
-243 -138 0
-262 -136 0
-263 -137 0
-264 -138 0
-265 -136 0
-266 -137 0
-267 -138 0
-403 -136 0
-404 -137 0
-405 -138 0
-154 -139 0
-155 -140 0
-156 -141 0
-202 -139 0
-203 -140 0
-204 -141 0
-385 -139 0
-386 -140 0
-387 -141 0
-388 -139 0
-389 -140 0
-390 -141 0
-184 -142 0
-185 -143 0
-186 -144 0
-328 -142 0
-329 -143 0
-330 -144 0
-193 -145 0
-194 -146 0
-195 -147 0
-325 -145 0
-326 -146 0
-327 -147 0
-349 -145 0
-350 -146 0
-351 -147 0
-385 -145 0
-386 -146 0
-387 -147 0
-256 -148 0
-257 -149 0
-258 -150 0
-367 -148 0
-368 -149 0
-369 -150 0
-274 -151 0
-275 -152 0
-276 -153 0
-355 -151 0
-356 -152 0
-357 -153 0
-424 -151 0
-425 -152 0
-426 -153 0
-166 -154 0
-167 -155 0
-168 -156 0
-268 -154 0
-269 -155 0
-270 -156 0
-319 -154 0
-320 -155 0
-321 -156 0
-262 -157 0
-263 -158 0
-264 -159 0
-328 -157 0
-329 -158 0
-330 -159 0
-334 -157 0
-335 -158 0
-336 -159 0
-427 -157 0
-428 -158 0
-429 -159 0
-166 -160 0
-167 -161 0
-168 -162 0
-259 -160 0
-260 -161 0
-261 -162 0
-262 -160 0
-263 -161 0
-264 -162 0
-283 -160 0
-284 -161 0
-285 -162 0
-328 -160 0
-329 -161 0
-330 -162 0
-283 -163 0
-284 -164 0
-285 -165 0
-379 -163 0
-380 -164 0
-381 -165 0
-400 -163 0
-401 -164 0
-402 -165 0
-181 -166 0
-182 -167 0
-183 -168 0
-250 -166 0
-251 -167 0
-252 -168 0
-328 -166 0
-329 -167 0
-330 -168 0
-385 -166 0
-386 -167 0
-387 -168 0
-187 -169 0
-188 -170 0
-189 -171 0
-325 -169 0
-326 -170 0
-327 -171 0
-394 -169 0
-395 -170 0
-396 -171 0
-415 -169 0
-416 -170 0
-417 -171 0
-256 -172 0
-257 -173 0
-258 -174 0
-418 -172 0
-419 -173 0
-420 -174 0
-202 -175 0
-203 -176 0
-204 -177 0
-367 -175 0
-368 -176 0
-369 -177 0
-409 -175 0
-410 -176 0
-411 -177 0
-418 -175 0
-419 -176 0
-420 -177 0
-256 -178 0
-257 -179 0
-258 -180 0
-340 -178 0
-341 -179 0
-342 -180 0
-427 -178 0
-428 -179 0
-429 -180 0
-292 -181 0
-293 -182 0
-294 -183 0
-325 -181 0
-326 -182 0
-327 -183 0
-355 -184 0
-356 -185 0
-357 -186 0
-364 -184 0
-365 -185 0
-366 -186 0
-445 -184 0
-446 -185 0
-447 -186 0
-193 -187 0
-194 -188 0
-195 -189 0
-322 -187 0
-323 -188 0
-324 -189 0
-379 -187 0
-380 -188 0
-381 -189 0
-298 -190 0
-299 -191 0
-300 -192 0
-370 -190 0
-371 -191 0
-372 -192 0
-211 -193 0
-212 -194 0
-213 -195 0
-244 -196 0
-245 -197 0
-246 -198 0
-247 -196 0
-248 -197 0
-249 -198 0
-250 -196 0
-251 -197 0
-252 -198 0
-262 -196 0
-263 -197 0
-264 -198 0
-238 -199 0
-239 -200 0
-240 -201 0
-256 -202 0
-257 -203 0
-258 -204 0
-274 -202 0
-275 -203 0
-276 -204 0
-280 -202 0
-281 -203 0
-282 -204 0
-352 -202 0
-353 -203 0
-354 -204 0
-223 -205 0
-224 -206 0
-225 -207 0
-328 -205 0
-329 -206 0
-330 -207 0
-406 -205 0
-407 -206 0
-408 -207 0
-289 -208 0
-290 -209 0
-291 -210 0
-334 -208 0
-335 -209 0
-336 -210 0
-214 -211 0
-215 -212 0
-216 -213 0
-298 -211 0
-299 -212 0
-300 -213 0
-307 -211 0
-308 -212 0
-309 -213 0
-238 -214 0
-239 -215 0
-240 -216 0
-421 -214 0
-422 -215 0
-423 -216 0
-259 -217 0
-260 -218 0
-261 -219 0
-352 -217 0
-353 -218 0
-354 -219 0
-412 -217 0
-413 -218 0
-414 -219 0
-433 -217 0
-434 -218 0
-435 -219 0
-406 -220 0
-407 -221 0
-408 -222 0
-331 -226 0
-332 -227 0
-333 -228 0
-259 -229 0
-260 -230 0
-261 -231 0
-268 -232 0
-269 -233 0
-270 -234 0
-328 -232 0
-329 -233 0
-330 -234 0
-436 -232 0
-437 -233 0
-438 -234 0
-319 -235 0
-320 -236 0
-321 -237 0
-418 -235 0
-419 -236 0
-420 -237 0
-439 -235 0
-440 -236 0
-441 -237 0
-256 -238 0
-257 -239 0
-258 -240 0
-280 -238 0
-281 -239 0
-282 -240 0
-292 -238 0
-293 -239 0
-294 -240 0
-310 -238 0
-311 -239 0
-312 -240 0
-379 -238 0
-380 -239 0
-381 -240 0
-298 -241 0
-299 -242 0
-300 -243 0
-382 -241 0
-383 -242 0
-384 -243 0
-430 -241 0
-431 -242 0
-432 -243 0
-253 -247 0
-254 -248 0
-255 -249 0
-265 -247 0
-266 -248 0
-267 -249 0
-289 -247 0
-290 -248 0
-291 -249 0
-346 -250 0
-347 -251 0
-348 -252 0
-352 -250 0
-353 -251 0
-354 -252 0
-289 -253 0
-290 -254 0
-291 -255 0
-331 -253 0
-332 -254 0
-333 -255 0
-346 -253 0
-347 -254 0
-348 -255 0
-376 -253 0
-377 -254 0
-378 -255 0
-400 -253 0
-401 -254 0
-402 -255 0
-358 -256 0
-359 -257 0
-360 -258 0
-379 -259 0
-380 -260 0
-381 -261 0
-397 -262 0
-398 -263 0
-399 -264 0
-313 -268 0
-314 -269 0
-315 -270 0
-409 -268 0
-410 -269 0
-411 -270 0
-277 -271 0
-278 -272 0
-279 -273 0
-301 -274 0
-302 -275 0
-303 -276 0
-316 -274 0
-317 -275 0
-318 -276 0
-343 -274 0
-344 -275 0
-345 -276 0
-406 -277 0
-407 -278 0
-408 -279 0
-286 -280 0
-287 -281 0
-288 -282 0
-379 -280 0
-380 -281 0
-381 -282 0
-334 -283 0
-335 -284 0
-336 -285 0
-340 -286 0
-341 -287 0
-342 -288 0
-430 -286 0
-431 -287 0
-432 -288 0
-295 -289 0
-296 -290 0
-297 -291 0
-331 -289 0
-332 -290 0
-333 -291 0
-310 -292 0
-311 -293 0
-312 -294 0
-343 -295 0
-344 -296 0
-345 -297 0
-349 -295 0
-350 -296 0
-351 -297 0
-415 -295 0
-416 -296 0
-417 -297 0
-439 -295 0
-440 -296 0
-441 -297 0
-445 -298 0
-446 -299 0
-447 -300 0
-319 -301 0
-320 -302 0
-321 -303 0
-331 -307 0
-332 -308 0
-333 -309 0
-355 -310 0
-356 -311 0
-357 -312 0
-400 -310 0
-401 -311 0
-402 -312 0
-427 -310 0
-428 -311 0
-429 -312 0
-346 -313 0
-347 -314 0
-348 -315 0
-382 -313 0
-383 -314 0
-384 -315 0
-337 -316 0
-338 -317 0
-339 -318 0
-418 -316 0
-419 -317 0
-420 -318 0
-358 -319 0
-359 -320 0
-360 -321 0
-367 -322 0
-368 -323 0
-369 -324 0
-337 -325 0
-338 -326 0
-339 -327 0
-346 -328 0
-347 -329 0
-348 -330 0
-397 -328 0
-398 -329 0
-399 -330 0
-364 -334 0
-365 -335 0
-366 -336 0
-385 -334 0
-386 -335 0
-387 -336 0
-388 -334 0
-389 -335 0
-390 -336 0
-448 -334 0
-449 -335 0
-450 -336 0
-400 -337 0
-401 -338 0
-402 -339 0
-427 -343 0
-428 -344 0
-429 -345 0
-442 -349 0
-443 -350 0
-444 -351 0
-361 -352 0
-362 -353 0
-363 -354 0
-394 -352 0
-395 -353 0
-396 -354 0
-427 -352 0
-428 -353 0
-429 -354 0
-400 -358 0
-401 -359 0
-402 -360 0
-409 -361 0
-410 -362 0
-411 -363 0
-394 -364 0
-395 -365 0
-396 -366 0
-442 -373 0
-443 -374 0
-444 -375 0
-448 -373 0
-449 -374 0
-450 -375 0
-379 -376 0
-380 -377 0
-381 -378 0
-415 -388 0
-416 -389 0
-417 -390 0
-403 -391 0
-404 -392 0
-405 -393 0
-436 -391 0
-437 -392 0
-438 -393 0
-445 -397 0
-446 -398 0
-447 -399 0
-406 -400 0
-407 -401 0
-408 -402 0
-442 -400 0
-443 -401 0
-444 -402 0
-430 -403 0
-431 -404 0
-432 -405 0
-448 -409 0
-449 -410 0
-450 -411 0
-448 -415 0
-449 -416 0
-450 -417 0
